(set-logic SLHV)
(declare-hvar emp IntHeap)
(declare-locvar nil IntLoc)
(declare-datatype pt_record_0 ((Pt_R_0 (loc IntLoc))))
(declare-datatype pt_record_1 ((Pt_R_1 (data Int))))
(declare-const invalidDeref_3 Bool)
(declare-const loc_3 Int)
(declare-const invalidDeref_2 Bool)
(declare-hvar H_2 IntHeap)
(declare-hvar H_3 IntHeap)
(declare-hvar AH_2 IntHeap)
(declare-hvar AH_3 IntHeap)
(declare-const $i9_main0_2 Int)
(declare-const $i9_main0_3 Int)
(declare-const $i5_main0_2 Int)
(declare-const $i5_main0_3 Int)
(declare-locvar $p8_main0_2 IntLoc)
(declare-locvar $p8_main0_3 IntLoc)
(declare-locvar $p7_main0_2 IntLoc)
(declare-locvar $p7_main0_3 IntLoc)
(declare-locvar $p6_main0_2 IntLoc)
(declare-locvar $p6_main0_3 IntLoc)
(declare-locvar $p4_main0_2 IntLoc)
(declare-locvar $p4_main0_3 IntLoc)
(declare-locvar $p3_main0_2 IntLoc)
(declare-locvar $p3_main0_3 IntLoc)
(declare-locvar $p2_main0_2 IntLoc)
(declare-locvar $p2_main0_3 IntLoc)
(declare-locvar $p1_main0_2 IntLoc)
(declare-locvar $p1_main0_3 IntLoc)
(declare-locvar $p17_main0_2 IntLoc)
(declare-locvar $p17_main0_3 IntLoc)
(declare-locvar $p16_main0_2 IntLoc)
(declare-locvar $p16_main0_3 IntLoc)
(declare-locvar $p15_main0_2 IntLoc)
(declare-locvar $p15_main0_3 IntLoc)
(declare-locvar $p14_main0_2 IntLoc)
(declare-locvar $p14_main0_3 IntLoc)
(declare-locvar $p13_main0_2 IntLoc)
(declare-locvar $p13_main0_3 IntLoc)
(declare-locvar $p12_main0_2 IntLoc)
(declare-locvar $p12_main0_3 IntLoc)
(declare-locvar $p11_main0_2 IntLoc)
(declare-locvar $p11_main0_3 IntLoc)
(declare-locvar $p10_main0_2 IntLoc)
(declare-locvar $p10_main0_3 IntLoc)
(declare-locvar $p0_main0_2 IntLoc)
(declare-locvar $p0_main0_3 IntLoc)
(declare-locvar $M.0_2 IntLoc)
(declare-locvar $M.0_3 IntLoc)
(declare-const $r_main01_3 Int)
(declare-const $r_main0_3 Int)
(declare-const loc_2 Int)
(declare-const $r_main0_2 Int)
(declare-const invalidDeref3_3 Bool)
(declare-hvar H7_3 IntHeap)
(declare-hvar AH6_3 IntHeap)
(declare-locvar $p12_main01_3 IntLoc)
(declare-locvar $p11_main01_3 IntLoc)
(declare-locvar $p10_main01_3 IntLoc)
(declare-hvar h10_3 IntHeap)
(declare-locvar l16_3 IntLoc)
(declare-const d17_3 Int)
(declare-const d15_3 Int)
(declare-locvar l15_3 IntLoc)
(declare-const d16_3 Int)
(declare-hvar ah7 IntHeap)
(declare-locvar l13_3 IntLoc)
(declare-hvar h8_3 IntHeap)
(declare-locvar l14_3 IntLoc)
(declare-hvar h9_3 IntHeap)
(declare-const $r_main0_1 Int)
(declare-const $i9_main0_1 Int)
(declare-const $i5_main0_1 Int)
(declare-locvar $p8_main0_1 IntLoc)
(declare-locvar $p7_main0_1 IntLoc)
(declare-locvar $p6_main0_1 IntLoc)
(declare-locvar $p4_main0_1 IntLoc)
(declare-locvar $p3_main0_1 IntLoc)
(declare-locvar $p2_main0_1 IntLoc)
(declare-locvar $p1_main0_1 IntLoc)
(declare-locvar $p12_main0_1 IntLoc)
(declare-locvar $p11_main0_1 IntLoc)
(declare-locvar $p10_main0_1 IntLoc)
(declare-locvar $p0_main0_1 IntLoc)
(declare-const invalidDeref2_2 Bool)
(declare-hvar H6_2 IntHeap)
(declare-hvar AH5_2 IntHeap)
(declare-locvar $p17_main01_2 IntLoc)
(declare-locvar $p16_main01_2 IntLoc)
(declare-locvar $p15_main01_2 IntLoc)
(declare-locvar $p14_main01_2 IntLoc)
(declare-locvar $p13_main01_2 IntLoc)
(declare-locvar $M.04_2 IntLoc)
(declare-hvar h7_2 IntHeap)
(declare-locvar l12_2 IntLoc)
(declare-const d13_2 Int)
(declare-hvar H5_2 IntHeap)
(declare-const d11_2 Int)
(declare-locvar l11_2 IntLoc)
(declare-const d12_2 Int)
(declare-hvar ah5 IntHeap)
(declare-hvar AH4_2 IntHeap)
(declare-locvar $M.0_1 IntLoc)
(declare-hvar h6_2 IntHeap)
(declare-locvar l10_2 IntLoc)
(declare-const d9_2 Int)
(declare-hvar H_1 IntHeap)
(declare-const d7_2 Int)
(declare-locvar l9_2 IntLoc)
(declare-const d8_2 Int)
(declare-hvar ah3 IntHeap)
(declare-hvar AH_1 IntHeap)
(declare-const invalidDeref_1 Bool)
(declare-locvar l7_2 IntLoc)
(declare-hvar h4_2 IntHeap)
(declare-locvar l8_2 IntLoc)
(declare-hvar h5_2 IntHeap)
(declare-const loc_1 Int)
(declare-locvar $p17_main0_1 IntLoc)
(declare-locvar $p16_main0_1 IntLoc)
(declare-locvar $p15_main0_1 IntLoc)
(declare-locvar $p14_main0_1 IntLoc)
(declare-locvar $p13_main0_1 IntLoc)
(declare-hvar H4_2 IntHeap)
(declare-hvar AH3_2 IntHeap)
(declare-locvar $p8_main01_2 IntLoc)
(declare-locvar $p7_main01_2 IntLoc)
(declare-locvar $p6_main01_2 IntLoc)
(declare-const $i9_main01_2 Int)
(declare-locvar $M.03_2 IntLoc)
(declare-hvar h3_2 IntHeap)
(declare-locvar l6_2 IntLoc)
(declare-const d5_2 Int)
(declare-const d3_2 Int)
(declare-locvar l5_2 IntLoc)
(declare-const d4_2 Int)
(declare-hvar ah1 IntHeap)
(declare-const $r_main0_0 Int)
(declare-const $i9_main0_0 Int)
(declare-const $i5_main0_0 Int)
(declare-locvar $p8_main0_0 IntLoc)
(declare-locvar $p7_main0_0 IntLoc)
(declare-locvar $p6_main0_0 IntLoc)
(declare-locvar $p17_main0_0 IntLoc)
(declare-locvar $p16_main0_0 IntLoc)
(declare-locvar $p15_main0_0 IntLoc)
(declare-locvar $p14_main0_0 IntLoc)
(declare-locvar $p13_main0_0 IntLoc)
(declare-locvar $p12_main0_0 IntLoc)
(declare-locvar $p11_main0_0 IntLoc)
(declare-locvar $p10_main0_0 IntLoc)
(declare-const invalidDeref1_1 Bool)
(declare-hvar H3_1 IntHeap)
(declare-hvar AH2_1 IntHeap)
(declare-locvar $p4_main01_1 IntLoc)
(declare-locvar $p3_main01_1 IntLoc)
(declare-locvar $p2_main01_1 IntLoc)
(declare-locvar $p1_main01_1 IntLoc)
(declare-locvar $p0_main01_1 IntLoc)
(declare-locvar $M.02_1 IntLoc)
(declare-const invalidDeref_0 Bool)
(declare-hvar h1_1 IntHeap)
(declare-locvar l3_1 IntLoc)
(declare-hvar H2_1 IntHeap)
(declare-locvar l4_1 IntLoc)
(declare-hvar h2 IntHeap)
(declare-locvar l2_1 IntLoc)
(declare-hvar AH1_1 IntHeap)
(declare-const d2_1 Int)
(declare-hvar H1_1 IntHeap)
(declare-locvar l1_1 IntLoc)
(declare-hvar AH_0 IntHeap)
(declare-const d1_1 Int)
(declare-hvar H_0 IntHeap)
(declare-locvar $M.01_1 IntLoc)
(declare-const loc_0 Int)
(assert
 (let (($x1162 (= loc_3 5)))
 (let (($x1146 (= invalidDeref_3 invalidDeref_2)))
 (let (($x1143 (= H_3 H_2)))
 (let (($x1144 (and (and true (= AH_3 AH_2)) $x1143)))
 (let (($x1106 (= $i9_main0_3 $i9_main0_2)))
 (let (($x1107 (and (and true (= $i5_main0_3 $i5_main0_2)) $x1106)))
 (let (($x1099 (= $p8_main0_3 $p8_main0_2)))
 (let (($x1096 (= $p7_main0_3 $p7_main0_2)))
 (let (($x1093 (= $p6_main0_3 $p6_main0_2)))
 (let (($x1090 (= $p4_main0_3 $p4_main0_2)))
 (let (($x1087 (= $p3_main0_3 $p3_main0_2)))
 (let (($x1084 (= $p2_main0_3 $p2_main0_2)))
 (let (($x1081 (= $p1_main0_3 $p1_main0_2)))
 (let (($x1078 (= $p17_main0_3 $p17_main0_2)))
 (let (($x1075 (= $p16_main0_3 $p16_main0_2)))
 (let (($x1072 (= $p15_main0_3 $p15_main0_2)))
 (let (($x1069 (= $p14_main0_3 $p14_main0_2)))
 (let (($x1066 (= $p13_main0_3 $p13_main0_2)))
 (let (($x1125 (= $p12_main0_3 $p12_main0_2)))
 (let (($x1123 (= $p11_main0_3 $p11_main0_2)))
 (let (($x1121 (= $p10_main0_3 $p10_main0_2)))
 (let (($x1063 (= $p0_main0_3 $p0_main0_2)))
 (let (($x1064 (and (and true (= $M.0_3 $M.0_2)) $x1063)))
 (let (($x1129 (and (and (and (and (and (and $x1064 $x1121) $x1123) $x1125) $x1066) $x1069) $x1072)))
 (let (($x1135 (and (and (and (and (and (and $x1129 $x1075) $x1078) $x1081) $x1084) $x1087) $x1090)))
 (let (($x1138 (and (and (and $x1135 $x1093) $x1096) $x1099)))
 (let (($x1154 (= $r_main0_3 $r_main01_3)))
 (let (($x1155 (and $x1154 true)))
 (let (($x1158 (and (and (and (or (= $r_main01_3 0) invalidDeref_2) $x1155) $x1138) $x1107)))
 (let (($x965 (= loc_2 4)))
 (let (($x1113 (= loc_3 4)))
 (let (($x1109 (= $r_main0_3 $r_main0_2)))
 (let (($x1110 (and $x1107 $x1109)))
 (let (($x1140 (and (and (and (or true invalidDeref_2) (and true true)) $x1138) $x1110)))
 (let (($x808 (= loc_2 3)))
 (let (($x1117 (and $x808 (not (= $i9_main0_2 1)))))
 (let (($x1082 (and (and (and (and (and (and $x1064 $x1066) $x1069) $x1072) $x1075) $x1078) $x1081)))
 (let (($x1100 (and (and (and (and (and (and $x1082 $x1084) $x1087) $x1090) $x1093) $x1096) $x1099)))
 (let (($x1056 (= invalidDeref_3 invalidDeref3_3)))
 (let (($x1053 (= H_3 H7_3)))
 (let (($x1050 (= AH_3 AH6_3)))
 (let (($x1047 (= $p12_main0_3 $p12_main01_3)))
 (let (($x1044 (= $p11_main0_3 $p11_main01_3)))
 (let (($x1042 (= $p10_main0_3 $p10_main01_3)))
 (let (($x1054 (and (and (and (and $x1042 $x1044) $x1047) $x1050) $x1053)))
 (let (($x988 (= H7_3 h10_3)))
 (let (($x989 (= $p12_main01_3 l16_3)))
 (let (($x993 (= H_2 (uplus h10_3 (pt l16_3 (Pt_R_1 d17_3))))))
 (let (($x996 (= d15_3 1)))
 (let (($x998 (= $p12_main01_3 l15_3)))
 (let (($x1002 (= H_2 (uplus h10_3 (pt l15_3 (Pt_R_1 d16_3))))))
 (let (($x1005 (= d15_3 2)))
 (let (($x1007 (and (=> $x1005 (and (and $x1002 $x998) $x988)) (=> $x996 (and (and $x993 $x989) $x988)))))
 (let (($x1008 (= AH6_3 ah7)))
 (let (($x1012 (= AH_2 (uplus ah7 (pt $p12_main01_3 (Pt_R_1 d15_3))))))
 (let (($x1014 (and (and $x1012 $x1008) $x1007)))
 (let (($x1018 (= invalidDeref3_3 invalidDeref_2)))
 (let (($x1019 (and invalidDeref_2 $x1018)))
 (let (($x1020 (= $p11_main01_3 l13_3)))
 (let (($x1024 (= H_2 (uplus h8_3 (pt $p10_main01_3 (Pt_R_0 l13_3))))))
 (let (($x1025 (and $x1024 $x1020)))
 (let (($x1027 (= $p10_main01_3 nil)))
 (let (($x1031 (= h9_3 (uplus H_2 (pt $p10_main01_3 (Pt_R_0 l14_3))))))
 (let (($x1038 (and (or (= $p10_main01_3 $M.0_2) invalidDeref_2) (or (or (and (or $x1031 $x1027) invalidDeref3_3) (and $x1025 $x1018)) $x1019))))
 (let (($x1040 (and (and $x1038 (or (= $p12_main01_3 $p11_main01_3) invalidDeref3_3)) (or $x1014 invalidDeref3_3))))
 (let (($x986 (= $i9_main0_2 1)))
 (let (($x987 (and $x808 $x986)))
 (let (($x1115 (=> $x987 (and (and (and (and $x1040 (and $x1054 $x1056)) $x1100) $x1110) $x1113))))
 (let (($x1165 (and (and $x1115 (=> $x1117 (and (and (and $x1140 $x1144) $x1146) $x1113))) (=> $x965 (and (and (and $x1158 $x1144) $x1146) $x1162)))))
 (let (($x800 (= $r_main0_2 $r_main0_1)))
 (let (($x960 (= $i9_main0_2 $i9_main0_1)))
 (let (($x797 (= $i5_main0_2 $i5_main0_1)))
 (let (($x798 (and true $x797)))
 (let (($x962 (and (and $x798 $x960) $x800)))
 (let (($x957 (= $p8_main0_2 $p8_main0_1)))
 (let (($x955 (= $p7_main0_2 $p7_main0_1)))
 (let (($x953 (= $p6_main0_2 $p6_main0_1)))
 (let (($x793 (= $p4_main0_2 $p4_main0_1)))
 (let (($x790 (= $p3_main0_2 $p3_main0_1)))
 (let (($x787 (= $p2_main0_2 $p2_main0_1)))
 (let (($x784 (= $p1_main0_2 $p1_main0_1)))
 (let (($x766 (= $p12_main0_2 $p12_main0_1)))
 (let (($x763 (= $p11_main0_2 $p11_main0_1)))
 (let (($x760 (= $p10_main0_2 $p10_main0_1)))
 (let (($x767 (and (and (and (and true (= $p0_main0_2 $p0_main0_1)) $x760) $x763) $x766)))
 (let (($x956 (and (and (and (and (and (and $x767 $x784) $x787) $x790) $x793) $x953) $x955)))
 (let (($x958 (and $x956 $x957)))
 (let (($x946 (= invalidDeref_2 invalidDeref2_2)))
 (let (($x944 (= H_2 H6_2)))
 (let (($x942 (= AH_2 AH5_2)))
 (let (($x940 (= $p17_main0_2 $p17_main01_2)))
 (let (($x938 (= $p16_main0_2 $p16_main01_2)))
 (let (($x936 (= $p15_main0_2 $p15_main01_2)))
 (let (($x934 (= $p14_main0_2 $p14_main01_2)))
 (let (($x935 (and (and (= $M.0_2 $M.04_2) (= $p13_main0_2 $p13_main01_2)) $x934)))
 (let (($x945 (and (and (and (and (and $x935 $x936) $x938) $x940) $x942) $x944)))
 (let (($x842 (= H6_2 h7_2)))
 (let (($x843 (= $p17_main01_2 l12_2)))
 (let (($x847 (= H5_2 (uplus h7_2 (pt l12_2 (Pt_R_1 d13_2))))))
 (let (($x850 (= d11_2 1)))
 (let (($x852 (= $p17_main01_2 l11_2)))
 (let (($x856 (= H5_2 (uplus h7_2 (pt l11_2 (Pt_R_1 d12_2))))))
 (let (($x859 (= d11_2 2)))
 (let (($x861 (and (=> $x859 (and (and $x856 $x852) $x842)) (=> $x850 (and (and $x847 $x843) $x842)))))
 (let (($x862 (= AH5_2 ah5)))
 (let (($x866 (= AH4_2 (uplus ah5 (pt $p17_main01_2 (Pt_R_1 d11_2))))))
 (let (($x868 (and (and $x866 $x862) $x861)))
 (let (($x874 (= H5_2 h6_2)))
 (let (($x875 (= $p15_main01_2 l10_2)))
 (let (($x879 (= H_1 (uplus h6_2 (pt l10_2 (Pt_R_1 d9_2))))))
 (let (($x882 (= d7_2 1)))
 (let (($x884 (= $p15_main01_2 l9_2)))
 (let (($x888 (= H_1 (uplus h6_2 (pt l9_2 (Pt_R_1 d8_2))))))
 (let (($x891 (= d7_2 2)))
 (let (($x893 (and (=> $x891 (and (and $x888 $x884) $x874)) (=> $x882 (and (and $x879 $x875) $x874)))))
 (let (($x894 (= AH4_2 ah3)))
 (let (($x898 (= AH_1 (uplus ah3 (pt $p15_main01_2 (Pt_R_1 d7_2))))))
 (let (($x900 (and (and $x898 $x894) $x893)))
 (let (($x904 (= invalidDeref2_2 invalidDeref_1)))
 (let (($x905 (and invalidDeref_1 $x904)))
 (let (($x906 (= $p14_main01_2 l7_2)))
 (let (($x910 (= H_1 (uplus h4_2 (pt $p13_main01_2 (Pt_R_0 l7_2))))))
 (let (($x911 (and $x910 $x906)))
 (let (($x913 (= $p13_main01_2 nil)))
 (let (($x917 (= h5_2 (uplus H_1 (pt $p13_main01_2 (Pt_R_0 l8_2))))))
 (let (($x924 (and (or (= $p13_main01_2 $M.0_1) invalidDeref_1) (or (or (and (or $x917 $x913) invalidDeref2_2) (and $x911 $x904)) $x905))))
 (let (($x926 (and (and $x924 (or (= $p15_main01_2 $p14_main01_2) invalidDeref2_2)) (or $x900 invalidDeref2_2))))
 (let (($x928 (and (and $x926 (or (= $p16_main01_2 $M.0_1) invalidDeref2_2)) (or (= $p17_main01_2 $p16_main01_2) invalidDeref2_2))))
 (let (($x930 (and (and $x928 (or $x868 invalidDeref2_2)) (or (= $M.04_2 nil) invalidDeref2_2))))
 (let (($x666 (= loc_1 2)))
 (let (($x839 (and $x666 (not (= $i5_main0_1 1)))))
 (let (($x967 (=> $x839 (and (and (and (and $x930 (and $x945 $x946)) $x958) $x962) $x965))))
 (let (($x804 (= invalidDeref_2 invalidDeref_1)))
 (let (($x801 (and $x798 $x800)))
 (let (($x781 (= $p17_main0_2 $p17_main0_1)))
 (let (($x778 (= $p16_main0_2 $p16_main0_1)))
 (let (($x775 (= $p15_main0_2 $p15_main0_1)))
 (let (($x772 (= $p14_main0_2 $p14_main0_1)))
 (let (($x779 (and (and (and (and $x767 (= $p13_main0_2 $p13_main0_1)) $x772) $x775) $x778)))
 (let (($x794 (and (and (and (and (and $x779 $x781) $x784) $x787) $x790) $x793)))
 (let (($x752 (= H_2 H4_2)))
 (let (($x749 (= AH_2 AH3_2)))
 (let (($x746 (= $p8_main0_2 $p8_main01_2)))
 (let (($x743 (= $p7_main0_2 $p7_main01_2)))
 (let (($x740 (= $p6_main0_2 $p6_main01_2)))
 (let (($x741 (and (and (= $M.0_2 $M.03_2) (= $i9_main0_2 $i9_main01_2)) $x740)))
 (let (($x753 (and (and (and (and $x741 $x743) $x746) $x749) $x752)))
 (let (($x754 (and $x753 true)))
 (let (($x691 (or (and (and (distinct $p8_main01_2 nil) true) (= $i9_main01_2 1)) (and (not (and (distinct $p8_main01_2 nil) true)) (= $i9_main01_2 0)))))
 (let (($x697 (= H4_2 h3_2)))
 (let (($x698 (= $p7_main01_2 l6_2)))
 (let (($x702 (= H_1 (uplus h3_2 (pt l6_2 (Pt_R_1 d5_2))))))
 (let (($x705 (= d3_2 1)))
 (let (($x707 (= $p7_main01_2 l5_2)))
 (let (($x711 (= H_1 (uplus h3_2 (pt l5_2 (Pt_R_1 d4_2))))))
 (let (($x714 (= d3_2 2)))
 (let (($x716 (and (=> $x714 (and (and $x711 $x707) $x697)) (=> $x705 (and (and $x702 $x698) $x697)))))
 (let (($x717 (= AH3_2 ah1)))
 (let (($x721 (= AH_1 (uplus ah1 (pt $p7_main01_2 (Pt_R_1 d3_2))))))
 (let (($x723 (and (and $x721 $x717) $x716)))
 (let (($x729 (and (or (= $p6_main01_2 $M.0_1) invalidDeref_1) (or (= $p7_main01_2 $p6_main01_2) invalidDeref_1))))
 (let (($x731 (and (and $x729 (or $x723 invalidDeref_1)) (or (= $M.03_2 nil) invalidDeref_1))))
 (let (($x733 (and (and $x731 (or (= $p8_main01_2 $M.03_2) invalidDeref_1)) (or $x691 invalidDeref_1))))
 (let (($x683 (= $i5_main0_1 1)))
 (let (($x684 (and $x666 $x683)))
 (let (($x810 (=> $x684 (and (and (and (and (and $x733 $x754) $x794) $x801) $x804) $x808))))
 (let (($x662 (= $r_main0_1 $r_main0_0)))
 (let (($x658 (= $i9_main0_1 $i9_main0_0)))
 (let (($x663 (and (and (and true (= $i5_main0_1 $i5_main0_0)) $x658) $x662)))
 (let (($x649 (= $p8_main0_1 $p8_main0_0)))
 (let (($x645 (= $p7_main0_1 $p7_main0_0)))
 (let (($x641 (= $p6_main0_1 $p6_main0_0)))
 (let (($x637 (= $p17_main0_1 $p17_main0_0)))
 (let (($x633 (= $p16_main0_1 $p16_main0_0)))
 (let (($x629 (= $p15_main0_1 $p15_main0_0)))
 (let (($x625 (= $p14_main0_1 $p14_main0_0)))
 (let (($x621 (= $p13_main0_1 $p13_main0_0)))
 (let (($x617 (= $p12_main0_1 $p12_main0_0)))
 (let (($x613 (= $p11_main0_1 $p11_main0_0)))
 (let (($x622 (and (and (and (and true (= $p10_main0_1 $p10_main0_0)) $x613) $x617) $x621)))
 (let (($x646 (and (and (and (and (and (and $x622 $x625) $x629) $x633) $x637) $x641) $x645)))
 (let (($x650 (and $x646 $x649)))
 (let (($x604 (= invalidDeref_1 invalidDeref1_1)))
 (let (($x601 (= H_1 H3_1)))
 (let (($x598 (= AH_1 AH2_1)))
 (let (($x595 (= $p4_main0_1 $p4_main01_1)))
 (let (($x592 (= $p3_main0_1 $p3_main01_1)))
 (let (($x589 (= $p2_main0_1 $p2_main01_1)))
 (let (($x586 (= $p1_main0_1 $p1_main01_1)))
 (let (($x587 (and (and (= $M.0_1 $M.02_1) (= $p0_main0_1 $p0_main01_1)) $x586)))
 (let (($x602 (and (and (and (and (and $x587 $x589) $x592) $x595) $x598) $x601)))
 (let (($x520 (= invalidDeref1_1 invalidDeref_0)))
 (let (($x521 (and invalidDeref_0 $x520)))
 (let (($x525 (= H3_1 (uplus h1_1 (pt $p4_main01_1 (Pt_R_0 $p2_main01_1))))))
 (let (($x529 (= H2_1 (uplus h1_1 (pt $p4_main01_1 (Pt_R_0 l3_1))))))
 (let (($x530 (and $x529 $x525)))
 (let (($x532 (= $p4_main01_1 nil)))
 (let (($x536 (= h2 (uplus H2_1 (pt $p4_main01_1 (Pt_R_0 l4_1))))))
 (let (($x547 (= AH2_1 (uplus AH1_1 (pt l2_1 (Pt_R_1 2))))))
 (let (($x548 (= $p2_main01_1 l2_1)))
 (let (($x552 (= H2_1 (uplus H1_1 (pt l2_1 (Pt_R_1 d2_1))))))
 (let (($x554 (and (and $x552 $x548) $x547)))
 (let (($x562 (= AH1_1 (uplus AH_0 (pt l1_1 (Pt_R_1 1))))))
 (let (($x563 (= $p0_main01_1 l1_1)))
 (let (($x567 (= H1_1 (uplus H_0 (pt l1_1 (Pt_R_1 d1_1))))))
 (let (($x569 (and (and $x567 $x563) $x562)))
 (let (($x573 (and (or (= $M.01_1 nil) invalidDeref_0) (or $x569 invalidDeref_0))))
 (let (($x575 (and (and $x573 (or (= $p1_main01_1 $p0_main01_1) invalidDeref_0)) (or (= $M.02_1 $p0_main01_1) invalidDeref_0))))
 (let (($x577 (and (and $x575 (or $x554 invalidDeref_0)) (or (= $p3_main01_1 $p2_main01_1) invalidDeref_0))))
 (let (($x579 (and (and $x577 (or (= $p4_main01_1 $M.02_1) invalidDeref_0)) (or (or (and (or $x536 $x532) invalidDeref1_1) (and $x530 $x520)) $x521))))
 (let (($x494 (= loc_0 1)))
 (let (($x668 (=> $x494 (and (and (and (and $x579 (and $x602 $x604)) $x650) $x663) $x666))))
 (let (($x498 (not invalidDeref_0)))
 (let (($x496 (and (and (= H_0 emp) (= AH_0 emp)) $x494)))
 (and (and (and (and (and $x496 $x498) $x668) (and $x810 $x967)) $x1165) invalidDeref_3))))))))))))))))))))))))))))))))))))))))))))))))))))))))))))))))))))))))))))))))))))))))))))))))))))))))))))))))))))))))))))))))))))))))))))))))))))))))))))))))))))))))))))))))))))))))))))))))))))))))))))))))))))))))
(check-sat)
